language Essence 1.3

letting bot_end be
        [2650, 2839, 2589, 2128, 1379, 1956, 971, 1824, 727, 3009, 2537, 54, 2309, 1333, 2730, 3011, 3004, 1301, 105,
         48, 3359, 2357, 19, 2283, 1606, 2880, 689, 893, 141, 1146, 629, 721, 2273, 20, 3404, 1619, 3089, 1087, 326,
         2881, 2032, 1159, 2308, 416, 813, 874, 1640, 3160, 3422;
             int(1..49)]
letting bot_start be
        [752, 2971, 44, 664, 3228, 2959, 116, 2028, 1015, 159, 962, 7, 1921, 692, 1573, 1835, 2073, 2497, 2289, 2943,
         448, 890, 1832, 999, 2511, 533, 563, 1353, 1227, 3080, 281, 2078, 2521, 406, 3541, 69, 2274, 3346, 1021, 114,
         3575, 1138, 318, 3584, 1697, 985, 2696, 453, 345;
             int(1..49)]
letting bots be 49
letting buffer_col be 2
letting buffer_row be 2
letting corridor_size be 1
letting n_shelves_col be 18
letting n_shelves_row be 29
letting shelf_col_size be 2
letting shelf_row_size be 1
